************************************************************************
file with basedata            : mf13_.bas
initial value random generator: 844861496
************************************************************************
projects                      :  1
jobs (incl. supersource/sink ):  32
horizon                       :  237
RESOURCES
  - renewable                 :  2   R
  - nonrenewable              :  2   N
  - doubly constrained        :  0   D
************************************************************************
PROJECT INFORMATION:
pronr.  #jobs rel.date duedate tardcost  MPM-Time
    1     30      0       33       26       33
************************************************************************
PRECEDENCE RELATIONS:
jobnr.    #modes  #successors   successors
   1        1          3           2   3   4
   2        3          2          14  16
   3        3          3           7  11  15
   4        3          3           5   6  24
   5        3          3          13  19  21
   6        3          3           8  22  25
   7        3          2          13  20
   8        3          3           9  10  15
   9        3          3          11  12  16
  10        3          1          23
  11        3          1          30
  12        3          1          18
  13        3          3          16  18  27
  14        3          1          20
  15        3          1          17
  16        3          2          26  29
  17        3          3          18  23  28
  18        3          2          26  29
  19        3          1          31
  20        3          2          21  25
  21        3          2          22  28
  22        3          3          23  26  30
  23        3          1          27
  24        3          1          25
  25        3          1          28
  26        3          1          31
  27        3          1          31
  28        3          2          29  30
  29        3          1          32
  30        3          1          32
  31        3          1          32
  32        1          0        
************************************************************************
REQUESTS/DURATIONS:
jobnr. mode duration  R 1  R 2  N 1  N 2
------------------------------------------------------------------------
  1      1     0       0    0    0    0
  2      1     3       8    6   10    0
         2     4       8    5   10    0
         3     7       8    4    0    5
  3      1     1       3    6   10    0
         2     2       3    6    8    0
         3     5       2    5    0    7
  4      1     2       4    4    8    0
         2     7       4    3    0    7
         3     8       3    1    0    3
  5      1     2      10    7    0    4
         2     8       9    6    0    4
         3    10       8    6    4    0
  6      1     4       7    4    5    0
         2     9       6    3    0    2
         3    10       6    1    1    0
  7      1     7       7    7    0    5
         2     8       7    5    5    0
         3    10       7    2    1    0
  8      1     1       8    4   10    0
         2     1       6    5    0    4
         3     9       3    2   10    0
  9      1     4       6    2    7    0
         2     8       5    2    6    0
         3     9       1    2    6    0
 10      1     5       8    9    0    6
         2     8       8    9    0    5
         3     9       8    9    9    0
 11      1     8       8    6    0    6
         2     8       8    7   10    0
         3     9       5    4    5    0
 12      1     1       4    3    4    0
         2     2       4    2    3    0
         3     5       4    2    2    0
 13      1     4       6    6    8    0
         2     7       3    5    6    0
         3     8       3    2    0    2
 14      1     1       7   10    3    0
         2     2       4    9    3    0
         3     5       4    7    0    1
 15      1     4       9    3    4    0
         2     7       8    3    4    0
         3    10       8    1    3    0
 16      1     1       3   10    0    3
         2     8       3    8    3    0
         3    10       2    5    1    0
 17      1     1       8    8    0    4
         2     1       8    8    2    0
         3     4       8    7    0    5
 18      1     2       3    2    7    0
         2     4       2    2    5    0
         3     9       2    1    3    0
 19      1     5       5    5    4    0
         2     5       6    3    0    6
         3     5       7    5    0    5
 20      1     6       8    7    0    6
         2     8       4    6    4    0
         3     8       6    5    4    0
 21      1     7       7    9    0    9
         2     7       6    8    4    0
         3     9       5    7    0    9
 22      1     3       9    5    0    7
         2     8       5    4    7    0
         3     9       5    3    2    0
 23      1     5       2    5    0   10
         2     6       2    5    0    9
         3    10       1    3    0    9
 24      1     3       9    9    0    9
         2     5       7    9    0    9
         3     8       5    9    4    0
 25      1     4       5    7    0    9
         2     7       5    4    0    9
         3    10       3    4    0    9
 26      1     7       5    7    0    7
         2     8       5    5    4    0
         3     9       4    5    0    7
 27      1     2       4    8    8    0
         2     4       2    5    4    0
         3     4       2    5    0    2
 28      1     1      10    9    9    0
         2     5      10    5    0    5
         3     7       9    3    3    0
 29      1     2       5    5    0    7
         2     2       5    4    0    8
         3     8       4    2    5    0
 30      1     4       9    7    5    0
         2     6       8    4    5    0
         3    10       6    1    0    7
 31      1     2       7    4    0    1
         2     3       5    4    0    1
         3     3       3    4    2    0
 32      1     0       0    0    0    0
************************************************************************
RESOURCEAVAILABILITIES:
  R 1  R 2  N 1  N 2
   18   17   90   81
************************************************************************
